! UKS B3LYP SmallPrint TightSCF
%basis basis "EPR-II"
 newGTO Cu "CP(PPP)" end
end
%maxcore 4096

%pal nprocs 16 end

%method
SpecialGridAtoms 29,7
SpecialGridIntAcc 9,8
end
* xyz 2 2
  Cu          4.91966199855577      1.76699838026132      4.24175930112691
  O           4.64520465780769      4.19722545750571     10.28023189862484
  N           6.59551117084369      1.01321268278208      3.35700400688593
  N           4.64549649685737     -0.77677049222132      4.38685743570610
  N           3.99957334905399      1.33472606211082      2.47492812065569
  N           5.61270251610395      3.67179063383959      2.63982216303112
  N           5.78404061585058      2.22643827758117      6.07734748962160
  N           3.27523624500738      2.58811164512583      5.19352492687512
  N           2.01770338164204      4.62176646394419      9.42095588342216
  N           3.46293236571648      3.50626326832436     12.24773865742191
  C           6.99157046004182     -0.22668877490729      3.69337385441502
  C           6.08180655699320     -1.05708834960170      4.57725577557242
  H           6.32956772825533     -2.10965749832076      4.39776984546826
  H           6.33426480173228     -0.85525051225282      5.61831719961035
  C           3.76627236165554     -1.46805483764319      5.42791016754408
  C           2.30626649727563     -1.05966176841521      5.18735951207725
  H           2.18633236002970      0.02180457058720      5.23985983129424
  H           1.67759097588611     -1.50372383616581      5.95903572417907
  H           1.91545953931251     -1.40477796857122      4.23018122893536
  C           4.15666732352301     -0.99846446779108      6.83612777929273
  H           5.13074099370388     -1.36792382139525      7.15677071318630
  H           3.42925666173118     -1.38407274446827      7.55056161437735
  H           4.15081979152741      0.08836218344538      6.90953930347586
  C           3.88894520891619     -3.00232756197383      5.36829896069124
  H           3.60661226190293     -3.41307130963057      4.39773277773865
  H           3.22137832400226     -3.44832792884164      6.10626377159186
  H           4.89722527651195     -3.34563100558494      5.60293883008175
  C           4.22239811222218     -1.07240492916496      3.00417231794977
  H           3.51999970327213     -1.90319972324163      2.96988148493754
  H           5.08643478347132     -1.41601116547912      2.42555112387850
  C           3.63653428599655      0.07466265344944      2.19469022311134
  C           3.75298326346102      2.33720256404364      1.61397143136985
  C           3.00536510407000      2.11268121186191      0.46524108835387
  H           2.81553276916741      2.92411049296989     -0.22475625659315
  C           2.52010850945959      0.83543007146066      0.21492702282223
  H           1.91657600556096      0.64228795907639     -0.66269543620431
  C           2.85769273118331     -0.19909627591602      1.07487637932013
  H           2.54530132173788     -1.21450576668922      0.86883189075625
  C           4.32531412710363      3.70720786098053      1.91979478136672
  H           4.39340590903234      4.24816687600665      0.96874885108877
  H           3.60645839013837      4.25117791708622      2.53253128283938
  C           6.06177827400829      5.05250923486572      3.11493884773296
  C           6.29108314618164      6.02714335951898      1.94443628459717
  H           7.05551737096591      5.68206413951053      1.24634157730884
  H           6.63054978672411      6.98729767746601      2.33437256361708
  H           5.37672410384951      6.21818366742676      1.38159975455976
  C           5.00350728719274      5.65068917477340      4.05216056821007
  H           4.08594897626345      5.93263725804909      3.53600534644252
  H           5.40044393086797      6.56235457318386      4.49873380573619
  H           4.75640833223216      4.96404084939854      4.86053988231089
  C           7.36198858721454      4.89751387392390      3.91614843327972
  H           8.19464139743464      4.52763694003462      3.31793859920634
  H           7.22214388839428      4.22930581363470      4.76529969441894
  H           7.66308721426983      5.87097038399701      4.30300322599493
  C           6.64910953797454      2.97944600492914      1.85178485386725
  H           6.21688319683191      2.63302425396662      0.90686963251778
  H           7.44713362577660      3.65812247995118      1.55565039106118
  C           7.28701160967343      1.74480562139759      2.47052307322441
  C           8.51617439958904      1.29594910945510      1.99727395500185
  H           9.08208511783106      1.90357600211753      1.30324601216055
  C           8.98460565924159      0.05355272325319      2.39729731464739
  H           9.93734733074233     -0.31358413122280      2.03770078335067
  C           8.19574760327015     -0.73542448702850      3.22488447484955
  H           8.50387407908422     -1.73645211986783      3.49627712022957
  C           7.03119708432250      2.03155638624606      6.48712185876374
  H           7.71569258078806      1.58705483999609      5.77692674639269
  C           7.46759945325108      2.38485044856948      7.76824158433908
  H           8.49482222500176      2.20033774971319      8.05064165223262
  C           6.57953254219787      2.96560463719289      8.64622509720429
  H           6.88271169625420      3.25126097990744      9.64434286786152
  C           5.25374074163083      3.19017886547116      8.23441754968364
  C           4.89589631675755      2.79694375655010      6.92802923562242
  C           3.55912354894436      2.99259293165554      6.45652557421667
  C           2.04638945672182      2.76188956890324      4.72712217901932
  C           1.30373237366879      3.77103743069437      6.77336028632310
  C           2.60032614268528      3.59200489362705      7.29961759463288
  C           2.97052921281587      3.99741070387682      8.62360274360942
  C           2.31624873938658      4.90514782608082     10.62961074344854
  H           1.55694486883703      5.39028535402457     11.23343002285678
  C           3.60560366652137      4.57776152690248     11.33817415500610
  C           4.41327301402940      3.63775641480131     13.28217362044360
  C           4.80878543587819      2.69123436615250     14.21414604692275
  H           4.39295197572144      1.69268465863024     14.22913225186519
  C           5.77734778804698      3.06770912912050     15.14765891051516
  H           6.10376073880767      2.34882758960465     15.88805478135414
  C           6.32714317314068      4.34385286393152     15.13795795387674
  H           7.07644069735686      4.61341516350252     15.87024696525379
  C           5.91091179618210      5.28469972699991     14.19136775066446
  H           6.33674854880100      6.28080373820083     14.19525445338377
  C           4.95033912813612      4.92377474626638     13.26611332320638
  C           4.25371185174062      5.74015353163473     12.19047402172333
  C           3.15611496579575      6.60056421802914     12.85688617380235
  H           2.62106048086766      7.21190887362525     12.12675751392585
  H           3.62800345298231      7.27674168050537     13.56907978375822
  H           2.43738273324432      5.99341876561596     13.40858145105376
  C           5.18021126865581      6.64937867653371     11.37954661394277
  H           6.02992586689945      6.10966280110568     10.96776747583561
  H           5.56493705904201      7.43747595786582     12.02798748511134
  H           4.64313755715110      7.13724474672377     10.56292021903670
  C           2.90697536806466      2.21909514492985     11.88085419941550
  H           2.48234450866859      1.73992746247431     12.76275099036447
  H           3.66266308222032      1.54799701911093     11.45459727160499
  H           2.10088398489111      2.35259989019279     11.16076862308918
  C           4.25780445361525      3.80123777864483      9.07718268333769
  H           0.54738093381508      4.23444468631592      7.39181239288956
  H           1.84780262528025      2.41585774910133      3.72191399783105
  C           1.03288607341913      3.35503316425268      5.49097514861723
  H           0.04794832782904      3.47633435881394      5.06126928873400
*

%eprnmr
   GTensor 1
   nuclei = all Cu { aiso, adip, aorb, fgrad }
   nuclei = all N { aiso, adip, aorb, fgrad }
end


